WARNING: for repeatability, setting FPU to use double precision
============================[ Problem Statistics ]=============================
|                                                                             |
|  Number of variables:           100                                         |
|  Number of clauses:             449                                         |
|  Parse time:                   0.00 s                                       |
|  Simplification time:          0.00 s                                       |
|                                                                             |
============================[ Search Statistics ]==============================
| Conflicts |          ORIGINAL         |          LEARNT          | Progress |
|           |    Vars  Clauses Literals |    Limit  Clauses Lit/Cl |          |
===============================================================================
|       100 |     100      449     1347 |      164      100      8 |  0.010 % |
===============================================================================
restarts              : 3
conflicts             : 214            (70604 /sec)
decisions             : 276            (0.00 % random) (91059 /sec)
propagations          : 5292           (1745958 /sec)
conflict literals     : 1536           (15.42 % deleted)
Memory used           : 13.00 MB
CPU time              : 0.003031 s

SATISFIABLE
